100
    1   415   415
    2   152   152
    3   464   464
    4   460   460
    5   874   874
    6   434   434
    7   895   895
    8   874   874
    9   748   748
   10   379   379
   11   437   437
   12   407   407
   13   429   429
   14   963   963
   15   543   543
   16   145   145
   17   861   861
   18   544   544
   19   878   878
   20    64    64
   21   355   355
   22     9     9
   23   383   383
   24    57    57
   25   716   716
   26   205   205
   27   184   184
   28   472   472
   29    28    28
   30   313   313
   31   128   128
   32   426   426
   33   725   725
   34   488   488
   35   940   940
   36   432   432
   37   889   889
   38   212   212
   39   530   530
   40    39    39
   41    53    53
   42   275   275
   43   723   723
   44   781   781
   45   876   876
   46   926   926
   47   754   754
   48   958   958
   49   940   940
   50   123   123
   51   116   116
   52   884   884
   53   658   658
   54   842   842
   55   755   755
   56   621   621
   57   253   253
   58   252   252
   59   395   395
   60   158   158
   61   993   993
   62   183   183
   63   663   663
   64   134   134
   65   667   667
   66   470   470
   67   313   313
   68   421   421
   69   548   548
   70   301   301
   71   413   413
   72   139   139
   73   724   724
   74   355   355
   75   648   648
   76   957   957
   77   700   700
   78   176   176
   79   434   434
   80   817   817
   81   223   223
   82   910   910
   83   157   157
   84   171   171
   85     6     6
   86   475   475
   87   145   145
   88    33    33
   89   935   935
   90   620   620
   91   294   294
   92   241   241
   93   913   913
   94   406   406
   95   629   629
   96    98    98
   97   495   495
   98   494   494
   99   652   652
  100   671   671
40386
